100
2314
85 9
15 35
97 72
52 28
83 36
72 9
17 20
73 52
94 66
13 97
40 65
12 48
94 1
63 17
27 94
86 78
8 24
37 44
15 44
66 41
27 77
58 80
65 83
52 83
81 67
74 52
48 63
4 1
38 5
7 9
91 84
42 85
79 65
38 42
15 34
53 57
31 63
41 26
74 3
21 17
11 84
19 79
45 27
23 89
58 66
28 86
94 90
72 67
88 9
16 73
10 96
43 51
9 70
79 6
95 87
64 90
31 12
9 74
82 25
19 85
4 24
94 99
25 4
54 56
17 84
61 71
14 35
90 12
37 70
63 76
18 64
38 27
23 10
49 54
31 53
7 77
71 7
36 52
15 61
74 61
12 76
88 72
37 46
12 80
11 31
61 39
75 11
48 36
48 74
13 19
4 73
13 40
70 38
100 44
83 13
59 13
8 54
27 74
97 41
58 61
